decision_x1=[0,7];
decision_x2=[0,7];
decision_x3=[0,7];
decision_x4=[0,7];
decision_x5=[0,7];
decision_x6=[0,7];
decision_x7=[0,7];
decision_x8=[0,7];
decision_x9=[0,7];
decision_x10=[0,7];
decision_x11=[0,7];
decision_x12=[0,7];
decision_x13=[0,7];
decision_x14=[0,7];
decision_x15=[0,7];
decision_x16=[0,7];
decision_x17=[0,7];
decision_x18=[0,7];
random_y1=[0,7];
random_y2=[0,7];
random_y3=[0,7];
random_y4=[0,7];
random_y5=[0,7];
random_y6=[0,7];
random_y7=[0,7];
random_y8=[0,7];
constraint_x2_x1=[
0,0,6.7|
0,1,2.4|
0,2,1.7|
0,3,3.3|
0,4,8.5|
0,5,8.3|
0,6,2.9|
0,7,5.2|
1,0,0.5|
1,1,1.1|
1,2,3.3|
1,3,5.8|
1,4,3.2|
1,5,3.3|
1,6,0.78|
1,7,0.57|
2,0,6.3|
2,1,2.1|
2,2,7.7|
2,3,2.8|
2,4,7|
2,5,1.9|
2,6,4|
2,7,0.67|
3,0,2.2|
3,1,4.1|
3,2,7.6|
3,3,2.1|
3,4,7.3|
3,5,2.9|
3,6,8|
3,7,5.7|
4,0,3.7|
4,1,8.6|
4,2,6.9|
4,3,1.6|
4,4,2.5|
4,5,0.76|
4,6,2|
4,7,0.73|
5,0,1.8|
5,1,6.2|
5,2,3.1|
5,3,3.5|
5,4,1.8|
5,5,7.1|
5,6,4|
5,7,4.8|
6,0,6.8|
6,1,8.4|
6,2,4.3|
6,3,9.9|
6,4,0.84|
6,5,6.6|
6,6,6.4|
6,7,8.1|
7,0,7.3|
7,1,2.1|
7,2,1.2|
7,3,2.9|
7,4,6.6|
7,5,8.1|
7,6,6.2|
7,7,3.4|
];
constraint_x3_x2=[
0,0,1.7|
0,1,0.68|
0,2,5.2|
0,3,6.9|
0,4,4.2|
0,5,2.1|
0,6,3.3|
0,7,7.9|
1,0,6.7|
1,1,3.6|
1,2,1.3|
1,3,8.3|
1,4,6.3|
1,5,7.6|
1,6,4.3|
1,7,3.1|
2,0,10|
2,1,8|
2,2,9.9|
2,3,1.6|
2,4,1.7|
2,5,0.085|
2,6,7.5|
2,7,4.3|
3,0,7.4|
3,1,7.5|
3,2,1.9|
3,3,0.68|
3,4,9.4|
3,5,1.4|
3,6,5.8|
3,7,9.4|
4,0,3.3|
4,1,4.4|
4,2,3.1|
4,3,0.53|
4,4,3.2|
4,5,6.2|
4,6,9|
4,7,0.36|
5,0,8.8|
5,1,3.2|
5,2,5.2|
5,3,4.2|
5,4,5.6|
5,5,9.9|
5,6,3.5|
5,7,4.6|
6,0,4.8|
6,1,7.7|
6,2,2.1|
6,3,5|
6,4,9.6|
6,5,7.5|
6,6,1|
6,7,3.7|
7,0,6.3|
7,1,9.1|
7,2,1.5|
7,3,3.5|
7,4,9.7|
7,5,7|
7,6,5.1|
7,7,1.6|
];
constraint_x4_x3=[
0,0,2.4|
0,1,1.5|
0,2,8.8|
0,3,6.1|
0,4,5.8|
0,5,4.5|
0,6,7.2|
0,7,6.5|
1,0,9.9|
1,1,7.2|
1,2,5.2|
1,3,3.6|
1,4,9.8|
1,5,7.8|
1,6,0.27|
1,7,7.7|
2,0,3.3|
2,1,8|
2,2,6.4|
2,3,3.6|
2,4,3.1|
2,5,3.6|
2,6,0.57|
2,7,1.6|
3,0,9.8|
3,1,4.8|
3,2,0.69|
3,3,7.3|
3,4,4.6|
3,5,2.3|
3,6,7.7|
3,7,4|
4,0,1.4|
4,1,0.87|
4,2,3|
4,3,3.7|
4,4,7.2|
4,5,5.8|
4,6,4.8|
4,7,6.8|
5,0,9.7|
5,1,8.1|
5,2,9.8|
5,3,2.2|
5,4,0.99|
5,5,7.6|
5,6,7.2|
5,7,2.9|
6,0,5.5|
6,1,5|
6,2,4.2|
6,3,5.5|
6,4,4.9|
6,5,3.2|
6,6,0.24|
6,7,1.2|
7,0,3.5|
7,1,5.4|
7,2,7.3|
7,3,2.3|
7,4,0.27|
7,5,1.9|
7,6,2.7|
7,7,4.5|
];
constraint_x5_x1=[
0,0,7.7|
0,1,5.7|
0,2,0.36|
0,3,1.7|
0,4,4.1|
0,5,2.1|
0,6,6.2|
0,7,4.2|
1,0,7.3|
1,1,8|
1,2,5.8|
1,3,9.7|
1,4,3|
1,5,8.5|
1,6,3.2|
1,7,3.5|
2,0,5.6|
2,1,8.3|
2,2,7|
2,3,7.3|
2,4,1.5|
2,5,6|
2,6,0.46|
2,7,9.5|
3,0,8.5|
3,1,0.21|
3,2,6.9|
3,3,6.8|
3,4,6.6|
3,5,4.5|
3,6,6.5|
3,7,3.8|
4,0,4.5|
4,1,3.4|
4,2,2.5|
4,3,8.2|
4,4,8.2|
4,5,1.1|
4,6,5.9|
4,7,4.2|
5,0,0.28|
5,1,2.3|
5,2,3.8|
5,3,7.2|
5,4,3.3|
5,5,8.9|
5,6,3.6|
5,7,3.2|
6,0,8|
6,1,6.8|
6,2,4.9|
6,3,9.1|
6,4,1.9|
6,5,5.6|
6,6,7|
6,7,0.66|
7,0,4.3|
7,1,0.84|
7,2,8.5|
7,3,2.7|
7,4,8.4|
7,5,2.2|
7,6,5|
7,7,6.7|
];
constraint_x6_x2=[
0,0,4|
0,1,7.4|
0,2,0.78|
0,3,0.99|
0,4,6.8|
0,5,7|
0,6,1.8|
0,7,5.1|
1,0,3.7|
1,1,3|
1,2,2.8|
1,3,5.4|
1,4,6.8|
1,5,8.5|
1,6,4.5|
1,7,2.3|
2,0,9.5|
2,1,7.7|
2,2,4.9|
2,3,1.3|
2,4,4|
2,5,2.6|
2,6,7.2|
2,7,2|
3,0,0.49|
3,1,8.4|
3,2,1|
3,3,4.8|
3,4,6.6|
3,5,0.4|
3,6,2.7|
3,7,0.15|
4,0,9.9|
4,1,1.5|
4,2,5.3|
4,3,3.8|
4,4,8.9|
4,5,9.4|
4,6,7.1|
4,7,7.3|
5,0,8|
5,1,10|
5,2,8.7|
5,3,7.4|
5,4,9.8|
5,5,9.7|
5,6,5.1|
5,7,2.9|
6,0,7.5|
6,1,7.8|
6,2,7.9|
6,3,5.9|
6,4,7.3|
6,5,4.1|
6,6,5.6|
6,7,4.8|
7,0,1.7|
7,1,4.4|
7,2,2.9|
7,3,4.5|
7,4,2.5|
7,5,6|
7,6,1.5|
7,7,7.1|
];
constraint_x7_x3=[
0,0,4.9|
0,1,6|
0,2,1.7|
0,3,2|
0,4,3.6|
0,5,2|
0,6,1.2|
0,7,2.5|
1,0,7.1|
1,1,4.6|
1,2,7.6|
1,3,2.4|
1,4,6.2|
1,5,6.7|
1,6,1.1|
1,7,4.7|
2,0,0.61|
2,1,7.7|
2,2,3.5|
2,3,7.7|
2,4,4.8|
2,5,9.5|
2,6,9.7|
2,7,8.6|
3,0,1.8|
3,1,6.1|
3,2,7.3|
3,3,9.4|
3,4,6.5|
3,5,1.8|
3,6,3.3|
3,7,6.3|
4,0,1.9|
4,1,4|
4,2,9.7|
4,3,1.5|
4,4,3.9|
4,5,1.2|
4,6,2.3|
4,7,7.3|
5,0,6|
5,1,3.7|
5,2,5.2|
5,3,0.31|
5,4,0.19|
5,5,8.8|
5,6,4.6|
5,7,5.1|
6,0,7.8|
6,1,6|
6,2,4.1|
6,3,0.63|
6,4,8.8|
6,5,9.4|
6,6,1.2|
6,7,8.3|
7,0,6.2|
7,1,6.6|
7,2,7.7|
7,3,5.3|
7,4,3.7|
7,5,0.69|
7,6,1.3|
7,7,4.7|
];
constraint_x8_x4=[
0,0,4|
0,1,8.2|
0,2,2.7|
0,3,7.9|
0,4,2.6|
0,5,3.8|
0,6,0.12|
0,7,7.3|
1,0,2.5|
1,1,0.66|
1,2,0.8|
1,3,1.3|
1,4,6.3|
1,5,3.7|
1,6,7.3|
1,7,2.8|
2,0,2.8|
2,1,0.32|
2,2,7.2|
2,3,8.8|
2,4,4.9|
2,5,7.1|
2,6,0.71|
2,7,9.2|
3,0,1|
3,1,8.8|
3,2,4.8|
3,3,0.54|
3,4,9.1|
3,5,6.9|
3,6,0.47|
3,7,3.2|
4,0,4.2|
4,1,6.6|
4,2,4.3|
4,3,4.7|
4,4,7.9|
4,5,3.5|
4,6,3.1|
4,7,0.73|
5,0,3.4|
5,1,8|
5,2,6.8|
5,3,1.1|
5,4,6.8|
5,5,1.5|
5,6,2.2|
5,7,10|
6,0,5.1|
6,1,3.7|
6,2,7.8|
6,3,7.1|
6,4,8|
6,5,9.4|
6,6,4.9|
6,7,8.4|
7,0,0.54|
7,1,8.8|
7,2,9.4|
7,3,6.1|
7,4,3.6|
7,5,9.9|
7,6,8.8|
7,7,6.2|
];
constraint_x9_x5=[
0,0,3.5|
0,1,4.8|
0,2,3.2|
0,3,7.7|
0,4,3.7|
0,5,3.5|
0,6,2.1|
0,7,4.9|
1,0,7.6|
1,1,3.3|
1,2,0.67|
1,3,7|
1,4,2.5|
1,5,8.9|
1,6,9|
1,7,0.59|
2,0,4.4|
2,1,1.8|
2,2,3.7|
2,3,6.2|
2,4,2.7|
2,5,5.4|
2,6,1.2|
2,7,3.8|
3,0,8|
3,1,0.17|
3,2,5.3|
3,3,8.9|
3,4,6.8|
3,5,9.6|
3,6,6.7|
3,7,5|
4,0,8.5|
4,1,1.8|
4,2,2.3|
4,3,5.1|
4,4,4.6|
4,5,1.3|
4,6,5.1|
4,7,6|
5,0,9.9|
5,1,9.4|
5,2,9.5|
5,3,5.7|
5,4,1.4|
5,5,6.3|
5,6,7.7|
5,7,3.7|
6,0,8.9|
6,1,6.8|
6,2,0.45|
6,3,7.4|
6,4,3.9|
6,5,6.2|
6,6,5.8|
6,7,0.23|
7,0,3|
7,1,0.4|
7,2,2.7|
7,3,0.3|
7,4,4.6|
7,5,2.1|
7,6,6.9|
7,7,6.4|
];
constraint_x10_x6=[
0,0,9.2|
0,1,6.4|
0,2,6.4|
0,3,2.3|
0,4,2.7|
0,5,5.3|
0,6,5|
0,7,1.1|
1,0,6.9|
1,1,2.4|
1,2,1.1|
1,3,3.9|
1,4,5|
1,5,1.3|
1,6,3.7|
1,7,8.6|
2,0,7.7|
2,1,0.92|
2,2,2.9|
2,3,1.5|
2,4,6.1|
2,5,1.5|
2,6,1.4|
2,7,3.4|
3,0,8.3|
3,1,4.4|
3,2,0.33|
3,3,9.8|
3,4,3.8|
3,5,5.3|
3,6,2.3|
3,7,2.8|
4,0,8.1|
4,1,1.2|
4,2,4.4|
4,3,8|
4,4,5|
4,5,2.4|
4,6,10|
4,7,9.2|
5,0,6.9|
5,1,1.1|
5,2,8|
5,3,9.7|
5,4,2.9|
5,5,3.6|
5,6,9.5|
5,7,2.5|
6,0,9.3|
6,1,8.4|
6,2,8.7|
6,3,1.8|
6,4,10|
6,5,5|
6,6,3.2|
6,7,3.3|
7,0,9.7|
7,1,5.1|
7,2,6.2|
7,3,5|
7,4,2|
7,5,5.4|
7,6,0.56|
7,7,1.6|
];
constraint_x11_x7=[
0,0,0.49|
0,1,6|
0,2,0.18|
0,3,7.7|
0,4,9.7|
0,5,6.3|
0,6,9.7|
0,7,8.4|
1,0,7.2|
1,1,3.5|
1,2,6.3|
1,3,4.5|
1,4,8.9|
1,5,0.82|
1,6,3.5|
1,7,6.5|
2,0,7.8|
2,1,2|
2,2,9.7|
2,3,7.8|
2,4,6.2|
2,5,7.1|
2,6,3.5|
2,7,4.4|
3,0,8.1|
3,1,4.2|
3,2,3.5|
3,3,3.3|
3,4,8.6|
3,5,1.5|
3,6,5.4|
3,7,7.4|
4,0,9.1|
4,1,2.6|
4,2,7.3|
4,3,3.5|
4,4,4.4|
4,5,1.8|
4,6,0.34|
4,7,0.89|
5,0,9.7|
5,1,3.4|
5,2,8.9|
5,3,1.2|
5,4,4.8|
5,5,7.3|
5,6,2.4|
5,7,1.8|
6,0,3|
6,1,3.6|
6,2,7.3|
6,3,1.4|
6,4,9.3|
6,5,2.3|
6,6,5.7|
6,7,3.3|
7,0,5.2|
7,1,3.9|
7,2,7.6|
7,3,3.7|
7,4,4.3|
7,5,3.9|
7,6,8|
7,7,4|
];
constraint_x12_x8=[
0,0,1.6|
0,1,4.3|
0,2,4.5|
0,3,4.8|
0,4,1.3|
0,5,8.8|
0,6,3|
0,7,3.6|
1,0,4.3|
1,1,9.5|
1,2,2|
1,3,3|
1,4,1.2|
1,5,8.1|
1,6,5|
1,7,3.9|
2,0,1.1|
2,1,6.6|
2,2,9.6|
2,3,6.8|
2,4,6.8|
2,5,8.2|
2,6,9.1|
2,7,1.3|
3,0,2.9|
3,1,2.8|
3,2,3.2|
3,3,6.1|
3,4,1.8|
3,5,0.97|
3,6,1.4|
3,7,9.5|
4,0,0.21|
4,1,1.1|
4,2,5.9|
4,3,4|
4,4,3.8|
4,5,5.6|
4,6,9.3|
4,7,3.6|
5,0,4.6|
5,1,7.4|
5,2,1.5|
5,3,8.3|
5,4,9.8|
5,5,5.1|
5,6,6.9|
5,7,7.9|
6,0,2.2|
6,1,1.7|
6,2,7.1|
6,3,9.1|
6,4,4|
6,5,7.1|
6,6,5.4|
6,7,6.3|
7,0,6.6|
7,1,1.8|
7,2,3.2|
7,3,8.4|
7,4,4.2|
7,5,6.8|
7,6,2.7|
7,7,4.6|
];
constraint_x13_x9=[
0,0,0.29|
0,1,1.4|
0,2,4.9|
0,3,8.8|
0,4,7.1|
0,5,6.8|
0,6,3|
0,7,8.6|
1,0,8|
1,1,8|
1,2,9.1|
1,3,6.4|
1,4,6.7|
1,5,6.8|
1,6,1.3|
1,7,6.2|
2,0,4.2|
2,1,5.3|
2,2,5.9|
2,3,0.5|
2,4,8.6|
2,5,8.6|
2,6,4.6|
2,7,5.6|
3,0,6.9|
3,1,3.4|
3,2,4.1|
3,3,5.6|
3,4,1.1|
3,5,8.1|
3,6,5.5|
3,7,4|
4,0,7.2|
4,1,0.33|
4,2,8.2|
4,3,8.5|
4,4,3.7|
4,5,0.49|
4,6,0.98|
4,7,6.9|
5,0,8.5|
5,1,3.1|
5,2,2.1|
5,3,9|
5,4,1.9|
5,5,9.6|
5,6,2.6|
5,7,3.2|
6,0,8|
6,1,6.4|
6,2,0.076|
6,3,1.1|
6,4,6.8|
6,5,3.8|
6,6,4.4|
6,7,2.3|
7,0,3.4|
7,1,9.9|
7,2,5.5|
7,3,3.9|
7,4,1.5|
7,5,7.4|
7,6,1.8|
7,7,1.2|
];
constraint_x14_x10=[
0,0,0.85|
0,1,7.5|
0,2,3.1|
0,3,5.5|
0,4,1|
0,5,4.2|
0,6,7.1|
0,7,1|
1,0,7|
1,1,5.4|
1,2,6.9|
1,3,4.6|
1,4,7.1|
1,5,9.8|
1,6,8.8|
1,7,1.8|
2,0,6.7|
2,1,1.4|
2,2,6.7|
2,3,2.5|
2,4,2.7|
2,5,4.6|
2,6,0.4|
2,7,7.5|
3,0,0.84|
3,1,1.9|
3,2,2.8|
3,3,2.4|
3,4,2.9|
3,5,1.9|
3,6,1.4|
3,7,0.97|
4,0,7.2|
4,1,3.6|
4,2,0.23|
4,3,2.5|
4,4,9.7|
4,5,4.9|
4,6,5.1|
4,7,7.4|
5,0,8.2|
5,1,5.1|
5,2,4.1|
5,3,0.94|
5,4,3.1|
5,5,7.8|
5,6,3.9|
5,7,2.8|
6,0,0.58|
6,1,3.5|
6,2,0.92|
6,3,9.7|
6,4,2.9|
6,5,4.2|
6,6,4.5|
6,7,2.4|
7,0,3.4|
7,1,6.6|
7,2,6.7|
7,3,3.7|
7,4,1.3|
7,5,8|
7,6,1.6|
7,7,3.6|
];
constraint_x15_x11=[
0,0,1.1|
0,1,1.9|
0,2,2.1|
0,3,3.6|
0,4,4.2|
0,5,7.2|
0,6,3.1|
0,7,3.3|
1,0,2.1|
1,1,5.3|
1,2,2.8|
1,3,8.1|
1,4,6.3|
1,5,6.3|
1,6,8|
1,7,9.8|
2,0,5.7|
2,1,3.8|
2,2,7.1|
2,3,8.1|
2,4,7.1|
2,5,5.2|
2,6,1.6|
2,7,6.6|
3,0,1.2|
3,1,0.16|
3,2,9.8|
3,3,6.7|
3,4,7.5|
3,5,3|
3,6,9.2|
3,7,9.2|
4,0,6.4|
4,1,1.7|
4,2,0.62|
4,3,9.1|
4,4,6.5|
4,5,7.9|
4,6,8.3|
4,7,8.3|
5,0,4.4|
5,1,8.3|
5,2,2.6|
5,3,2.2|
5,4,2.2|
5,5,1.6|
5,6,6.3|
5,7,7.7|
6,0,0.75|
6,1,4.7|
6,2,8.7|
6,3,5.5|
6,4,6.9|
6,5,6|
6,6,1.5|
6,7,6.3|
7,0,3.1|
7,1,6|
7,2,6.2|
7,3,3.6|
7,4,4.4|
7,5,1.6|
7,6,8.1|
7,7,5.6|
];
constraint_x16_x12=[
0,0,9.7|
0,1,10|
0,2,4.9|
0,3,3.6|
0,4,6.4|
0,5,9.1|
0,6,7.5|
0,7,9.2|
1,0,4.4|
1,1,2.7|
1,2,8.5|
1,3,9|
1,4,5.8|
1,5,8.4|
1,6,1.7|
1,7,4.8|
2,0,3.4|
2,1,10|
2,2,1.7|
2,3,6.7|
2,4,0.92|
2,5,5.7|
2,6,4.7|
2,7,0.63|
3,0,6.3|
3,1,4.6|
3,2,3.4|
3,3,7.8|
3,4,0.62|
3,5,7.3|
3,6,7.5|
3,7,9.6|
4,0,2|
4,1,8.5|
4,2,7.1|
4,3,5.8|
4,4,1.8|
4,5,8.9|
4,6,6|
4,7,0.37|
5,0,8.4|
5,1,7.2|
5,2,4.2|
5,3,2.7|
5,4,6.6|
5,5,1.8|
5,6,8.5|
5,7,2.8|
6,0,2.1|
6,1,5.9|
6,2,1.4|
6,3,6.7|
6,4,6.6|
6,5,3.1|
6,6,8.2|
6,7,0.95|
7,0,4.2|
7,1,6.9|
7,2,5.9|
7,3,2.2|
7,4,2.6|
7,5,8.2|
7,6,4.1|
7,7,5|
];
constraint_x17_x13=[
0,0,7.3|
0,1,6.8|
0,2,7.3|
0,3,7.6|
0,4,1.8|
0,5,2.7|
0,6,4.4|
0,7,0.48|
1,0,0.93|
1,1,6|
1,2,9.5|
1,3,1.1|
1,4,1.5|
1,5,6.5|
1,6,5.3|
1,7,6.5|
2,0,3|
2,1,2.6|
2,2,7.6|
2,3,7.7|
2,4,1.5|
2,5,8.7|
2,6,5.2|
2,7,6.7|
3,0,2.1|
3,1,6.1|
3,2,6.5|
3,3,3.8|
3,4,2.6|
3,5,0.29|
3,6,4.5|
3,7,1.7|
4,0,9.3|
4,1,7.1|
4,2,4.8|
4,3,5.7|
4,4,6.6|
4,5,4|
4,6,6.2|
4,7,9.6|
5,0,3.2|
5,1,6.7|
5,2,7.8|
5,3,6.3|
5,4,5|
5,5,5.4|
5,6,7.9|
5,7,1.8|
6,0,4.7|
6,1,5.3|
6,2,0.58|
6,3,9|
6,4,7.9|
6,5,5.8|
6,6,5.4|
6,7,5.1|
7,0,2.9|
7,1,7.3|
7,2,6.7|
7,3,1.2|
7,4,7.3|
7,5,4.8|
7,6,7.7|
7,7,8.2|
];
constraint_x18_x14=[
0,0,0.26|
0,1,0.55|
0,2,0.69|
0,3,6.7|
0,4,5.9|
0,5,9.8|
0,6,9.4|
0,7,8.1|
1,0,5.1|
1,1,9|
1,2,6.4|
1,3,3.8|
1,4,3.8|
1,5,1.8|
1,6,0.27|
1,7,0.87|
2,0,8.4|
2,1,7.3|
2,2,5.3|
2,3,9.4|
2,4,8.2|
2,5,5.8|
2,6,6.4|
2,7,9.5|
3,0,7.8|
3,1,9.8|
3,2,3.6|
3,3,8|
3,4,7.2|
3,5,2.4|
3,6,6.6|
3,7,9.4|
4,0,5.4|
4,1,0.38|
4,2,3.4|
4,3,3.3|
4,4,8.8|
4,5,9.9|
4,6,2.6|
4,7,8.8|
5,0,4.1|
5,1,4.1|
5,2,4|
5,3,2.5|
5,4,7.2|
5,5,8.3|
5,6,1.7|
5,7,6.6|
6,0,8.7|
6,1,7.8|
6,2,0.35|
6,3,4.4|
6,4,1.7|
6,5,4.1|
6,6,9.6|
6,7,6.1|
7,0,8.5|
7,1,0.23|
7,2,6.3|
7,3,7.9|
7,4,6.1|
7,5,8.2|
7,6,6|
7,7,3.2|
];
constraint_x1_y1=[
0,0,9.4|
0,1,5.4|
0,2,9.1|
0,3,4.5|
0,4,3.9|
0,5,6.9|
0,6,2.6|
0,7,8.9|
1,0,7.3|
1,1,7.8|
1,2,2.6|
1,3,0.6|
1,4,6.4|
1,5,3.6|
1,6,2|
1,7,2.6|
2,0,7.4|
2,1,4.3|
2,2,0.032|
2,3,4.3|
2,4,6.3|
2,5,1.8|
2,6,4.9|
2,7,1.1|
3,0,7.7|
3,1,2.4|
3,2,6.2|
3,3,3.2|
3,4,2.5|
3,5,0.73|
3,6,4.8|
3,7,0.45|
4,0,0.52|
4,1,5.8|
4,2,7.9|
4,3,2.1|
4,4,7.6|
4,5,3.1|
4,6,1|
4,7,9.9|
5,0,4.9|
5,1,7.4|
5,2,9.8|
5,3,8.4|
5,4,8.1|
5,5,2.3|
5,6,5.5|
5,7,7.7|
6,0,4.8|
6,1,2.7|
6,2,6.4|
6,3,3.1|
6,4,9.9|
6,5,0.67|
6,6,8|
6,7,2.5|
7,0,6.1|
7,1,3.4|
7,2,3.2|
7,3,9.9|
7,4,2.7|
7,5,9|
7,6,5.1|
7,7,6.1|
];
constraint_x2_y2=[
0,0,7.8|
0,1,2|
0,2,3.4|
0,3,5|
0,4,4.6|
0,5,8.8|
0,6,2.8|
0,7,7.7|
1,0,9.8|
1,1,7.5|
1,2,6.4|
1,3,5.6|
1,4,4.8|
1,5,4.2|
1,6,3.1|
1,7,8.5|
2,0,9.9|
2,1,0.74|
2,2,4.6|
2,3,7.8|
2,4,6.3|
2,5,1.4|
2,6,0.4|
2,7,5.8|
3,0,1.7|
3,1,3.6|
3,2,4.7|
3,3,6.6|
3,4,5.1|
3,5,9|
3,6,2.7|
3,7,5.9|
4,0,5.4|
4,1,0.056|
4,2,4.8|
4,3,1.3|
4,4,0.49|
4,5,4.8|
4,6,4.4|
4,7,2.2|
5,0,7.5|
5,1,7.6|
5,2,6.2|
5,3,5|
5,4,0.16|
5,5,7.1|
5,6,8.7|
5,7,9.8|
6,0,6.3|
6,1,5.3|
6,2,1.8|
6,3,0.85|
6,4,2.2|
6,5,0.98|
6,6,3.2|
6,7,7.2|
7,0,1.6|
7,1,4.3|
7,2,5.6|
7,3,4.4|
7,4,6.2|
7,5,3.4|
7,6,6.1|
7,7,0.46|
];
constraint_x3_y3=[
0,0,1.5|
0,1,8.1|
0,2,7.4|
0,3,8|
0,4,1.6|
0,5,0.24|
0,6,0.49|
0,7,2.8|
1,0,2|
1,1,1.9|
1,2,7.4|
1,3,3.7|
1,4,2.6|
1,5,6.8|
1,6,8.3|
1,7,5.4|
2,0,1.9|
2,1,1.6|
2,2,1.8|
2,3,5.2|
2,4,0.039|
2,5,1.4|
2,6,5.9|
2,7,0.71|
3,0,8.7|
3,1,6.6|
3,2,4.8|
3,3,1.7|
3,4,5.1|
3,5,6.6|
3,6,4.6|
3,7,9.4|
4,0,1.1|
4,1,5.1|
4,2,1.4|
4,3,3.3|
4,4,0.69|
4,5,9.8|
4,6,0.76|
4,7,1.3|
5,0,2.2|
5,1,3.4|
5,2,8.6|
5,3,1.8|
5,4,8.8|
5,5,6|
5,6,6.7|
5,7,0.77|
6,0,6.5|
6,1,4.2|
6,2,4.8|
6,3,4.9|
6,4,4.2|
6,5,9.2|
6,6,2.8|
6,7,2|
7,0,5.7|
7,1,6.2|
7,2,5.1|
7,3,0.77|
7,4,6.8|
7,5,8.8|
7,6,1.5|
7,7,9.5|
];
constraint_x4_y4=[
0,0,0.033|
0,1,2.8|
0,2,1.6|
0,3,9.8|
0,4,6.6|
0,5,9.8|
0,6,6.3|
0,7,2.6|
1,0,5.1|
1,1,7.8|
1,2,7.9|
1,3,10|
1,4,4.3|
1,5,5.8|
1,6,6|
1,7,9.7|
2,0,4.5|
2,1,6|
2,2,1.1|
2,3,5.4|
2,4,1.8|
2,5,3.8|
2,6,9.2|
2,7,3.7|
3,0,8.2|
3,1,1.7|
3,2,0.19|
3,3,6.5|
3,4,9.4|
3,5,5.7|
3,6,2.5|
3,7,9.4|
4,0,7.1|
4,1,2.6|
4,2,7.8|
4,3,9.2|
4,4,5.8|
4,5,4.9|
4,6,1.5|
4,7,7.9|
5,0,4.4|
5,1,8.4|
5,2,8.6|
5,3,1.8|
5,4,3.7|
5,5,7.3|
5,6,7.7|
5,7,4.6|
6,0,0.72|
6,1,3.1|
6,2,3.7|
6,3,5.7|
6,4,9.4|
6,5,4.5|
6,6,6.1|
6,7,7.5|
7,0,3.4|
7,1,0.072|
7,2,4.6|
7,3,8.6|
7,4,1.5|
7,5,2.9|
7,6,1.1|
7,7,1.6|
];
constraint_x5_y5=[
0,0,0.32|
0,1,1.3|
0,2,2.4|
0,3,9.1|
0,4,2.3|
0,5,3.7|
0,6,4.6|
0,7,9.7|
1,0,3.8|
1,1,4.8|
1,2,8.3|
1,3,4.1|
1,4,3.6|
1,5,3.9|
1,6,4.6|
1,7,9.3|
2,0,5.4|
2,1,4.4|
2,2,4.2|
2,3,3.5|
2,4,0.11|
2,5,3.3|
2,6,9.7|
2,7,5.3|
3,0,2.1|
3,1,0.75|
3,2,6.3|
3,3,0.09|
3,4,5.3|
3,5,7|
3,6,3.8|
3,7,9.2|
4,0,6.8|
4,1,1.1|
4,2,4.9|
4,3,6.1|
4,4,7|
4,5,7.3|
4,6,0.49|
4,7,1.9|
5,0,4|
5,1,3.2|
5,2,9.9|
5,3,2.5|
5,4,0.8|
5,5,0.98|
5,6,8.4|
5,7,2.1|
6,0,9.6|
6,1,5.8|
6,2,9.5|
6,3,0.05|
6,4,7.8|
6,5,1.9|
6,6,4.9|
6,7,0.88|
7,0,3.4|
7,1,8.8|
7,2,8|
7,3,4.4|
7,4,3.3|
7,5,8.6|
7,6,5.6|
7,7,7.2|
];
constraint_x6_y6=[
0,0,0.3|
0,1,2.4|
0,2,3.8|
0,3,8.5|
0,4,4.1|
0,5,6.3|
0,6,0.38|
0,7,8.6|
1,0,7|
1,1,0.5|
1,2,4.9|
1,3,0.92|
1,4,4.8|
1,5,5.8|
1,6,3.7|
1,7,3.1|
2,0,6.3|
2,1,9.6|
2,2,1.3|
2,3,0.097|
2,4,6.2|
2,5,0.5|
2,6,9.8|
2,7,5.6|
3,0,3.6|
3,1,7.5|
3,2,7.5|
3,3,0.62|
3,4,9.8|
3,5,6.6|
3,6,0.57|
3,7,5.6|
4,0,2.5|
4,1,5.8|
4,2,1.2|
4,3,3.8|
4,4,6.1|
4,5,5.8|
4,6,6.6|
4,7,3.7|
5,0,7.7|
5,1,2|
5,2,1.2|
5,3,8.1|
5,4,0.29|
5,5,0.31|
5,6,8.4|
5,7,7.7|
6,0,2|
6,1,2.3|
6,2,3.6|
6,3,8.7|
6,4,1.7|
6,5,2.6|
6,6,8|
6,7,4|
7,0,2.6|
7,1,9.8|
7,2,3.4|
7,3,6.6|
7,4,3.8|
7,5,3.1|
7,6,7.7|
7,7,9.4|
];
constraint_x7_y7=[
0,0,3.9|
0,1,7.2|
0,2,1.7|
0,3,9.1|
0,4,5.2|
0,5,6.1|
0,6,4.9|
0,7,3.7|
1,0,9.9|
1,1,4.3|
1,2,4.2|
1,3,7.6|
1,4,8.2|
1,5,4.4|
1,6,2.8|
1,7,5.3|
2,0,1.4|
2,1,5.5|
2,2,10|
2,3,2.4|
2,4,7.3|
2,5,3.2|
2,6,6.5|
2,7,7.5|
3,0,6|
3,1,1.1|
3,2,5.2|
3,3,8.5|
3,4,4.3|
3,5,3|
3,6,5.2|
3,7,2.6|
4,0,0.66|
4,1,5.3|
4,2,6.7|
4,3,7.2|
4,4,8.9|
4,5,1.5|
4,6,9.1|
4,7,4.6|
5,0,2.9|
5,1,6.8|
5,2,1.4|
5,3,1.4|
5,4,2.9|
5,5,0.68|
5,6,0.81|
5,7,4.7|
6,0,8.2|
6,1,8.6|
6,2,7.8|
6,3,6.3|
6,4,3.2|
6,5,6.3|
6,6,2.2|
6,7,2.4|
7,0,2.5|
7,1,9.2|
7,2,3.4|
7,3,4.8|
7,4,3.8|
7,5,8.3|
7,6,7.9|
7,7,7.7|
];
constraint_x8_y8=[
0,0,3.2|
0,1,9.5|
0,2,6|
0,3,1.7|
0,4,7.5|
0,5,7.9|
0,6,3.6|
0,7,9.2|
1,0,1.5|
1,1,8.6|
1,2,8.4|
1,3,1.9|
1,4,3.9|
1,5,5.9|
1,6,2.3|
1,7,9.4|
2,0,7.5|
2,1,8.4|
2,2,5.4|
2,3,0.37|
2,4,6.2|
2,5,7.4|
2,6,4.7|
2,7,2.4|
3,0,2.6|
3,1,0.58|
3,2,8.9|
3,3,2.5|
3,4,9.8|
3,5,1.8|
3,6,3.9|
3,7,0.33|
4,0,4.2|
4,1,4.9|
4,2,3.5|
4,3,1.5|
4,4,2.1|
4,5,3.9|
4,6,7.9|
4,7,8.4|
5,0,7.4|
5,1,2.9|
5,2,1.4|
5,3,5.2|
5,4,9.3|
5,5,1.5|
5,6,2.1|
5,7,8.7|
6,0,5.4|
6,1,9|
6,2,7.6|
6,3,2.3|
6,4,5.9|
6,5,1.2|
6,6,2|
6,7,2.1|
7,0,7.7|
7,1,9|
7,2,3|
7,3,4.8|
7,4,4.2|
7,5,8.6|
7,6,6.8|
7,7,1.5|
];
initial_distribution_y1=[0.059,0.12,0.12,0.018,0.25,0.16,0.12,0.16];
initial_distribution_y2=[0.24,0.12,0.0049,0.055,0.24,0.1,0.12,0.12];
initial_distribution_y3=[0.11,0.17,0.03,0.047,0.33,0.025,0.015,0.27];
initial_distribution_y4=[0.02,0.17,0.2,0.17,0.073,0.21,0.071,0.09];
initial_distribution_y5=[0.13,0.17,0.3,0.11,0.022,0.14,0.093,0.031];
initial_distribution_y6=[0.085,0.074,0.13,0.11,0.097,0.19,0.16,0.16];
initial_distribution_y7=[0.079,0.12,0.17,0.11,0.13,0.13,0.2,0.065];
initial_distribution_y8=[0.13,0.017,0.19,0.13,0.17,0.12,0.11,0.13];
transition_y1=[
0.014,0.22,0.14,0.18,0.21,0.023,0.0077,0.21|
0.17,0.075,0.24,0.046,0.087,0.071,0.14,0.17|
0.032,0.069,0.12,0.19,0.19,0.12,0.079,0.2|
0.067,0.12,0.16,0.15,0.08,0.025,0.17,0.23|
0.11,0.09,0.08,0.16,0.24,0.11,0.072,0.13|
0.024,0.26,0.27,0.024,0.052,0.2,0.16,0.012|
0.058,0.055,0.0088,0.073,0.042,0.25,0.24,0.28|
0.18,0.12,0.14,0.092,0.058,0.21,0.2,0.0035|
];
transition_y2=[
0.033,0.076,0.21,0.21,0.072,0.061,0.16,0.19|
0.19,0.085,0.081,0.16,0.062,0.21,0.052,0.16|
0.15,0.041,0.17,0.19,0.02,0.19,0.16,0.085|
0.12,0.17,0.024,0.062,0.28,0.046,0.11,0.18|
0.15,0.046,0.14,0.22,0.11,0.071,0.13,0.13|
0.14,0.15,0.17,0.11,0.041,0.15,0.1,0.14|
0.075,0.12,0.21,0.21,0.11,0.04,0.14,0.092|
0.23,0.19,0.092,0.0064,0.092,0.2,0.11,0.079|
];
transition_y3=[
0.036,0.18,0.11,0.23,0.14,0.15,0.037,0.11|
0.13,0.17,0.27,0.051,0.26,0.071,0.004,0.041|
0.069,0.016,0.12,0.22,0.13,0.13,0.17,0.15|
0.29,0.15,0.15,0.041,0.087,0.041,0.098,0.14|
0.14,0.17,0.093,0.065,0.13,0.15,0.1,0.14|
0.094,0.18,0.11,0.13,0.12,0.2,0.058,0.12|
0.15,0.15,0.13,0.2,0.078,0.094,0.067,0.13|
0.14,0.15,0.012,0.074,0.075,0.19,0.2,0.16|
];
transition_y4=[
0.2,0.13,0.22,0.16,0.12,0.073,0.011,0.085|
0.044,0.069,0.19,0.05,0.18,0.14,0.13,0.19|
0.064,0.19,0.048,0.13,0.077,0.2,0.092,0.19|
0.0081,0.21,0.16,0.077,0.13,0.2,0.019,0.21|
0.19,0.051,0.15,0.038,0.15,0.11,0.15,0.17|
0.0053,0.13,0.22,0.21,0.036,0.0081,0.15,0.24|
0.2,0.0098,0.18,0.019,0.031,0.27,0.035,0.26|
0.18,0.11,0.2,0.062,0.058,0.13,0.072,0.19|
];
transition_y5=[
0.1,0.092,0.11,0.23,0.057,0.24,0.022,0.14|
0.12,0.2,0.099,0.16,0.13,0.037,0.025,0.23|
0.12,0.12,0.23,0.17,0.074,0.065,0.076,0.15|
0.35,0.016,0.029,0.014,0.031,0.21,0.27,0.085|
0.17,0.12,0.14,0.15,0.13,0.17,0.0091,0.1|
0.09,0.062,0.21,0.2,0.18,0.058,0.16,0.039|
0.067,0.15,0.042,0.28,0.1,0.015,0.097,0.25|
0.21,0.11,0.11,0.17,0.051,0.0087,0.25,0.085|
];
transition_y6=[
0.14,0.19,0.2,0.091,0.16,0.047,0.081,0.098|
0.17,0.19,0.088,0.1,0.11,0.17,0.14,0.035|
0.16,0.12,0.24,0.045,0.12,0.07,0.028,0.22|
0.11,0.25,0.23,0.14,0.05,0.052,0.12,0.055|
0.024,0.17,0.06,0.066,0.075,0.13,0.22,0.26|
0.13,0.19,0.26,0.024,0.17,0.052,0.069,0.11|
0.19,0.16,0.071,0.03,0.024,0.19,0.18,0.15|
0.06,0.19,0.13,0.21,0.017,0.035,0.064,0.29|
];
transition_y7=[
0.031,0.18,0.15,0.13,0.16,0.16,0.076,0.12|
0.21,0.12,0.056,0.16,0.17,0.2,0.051,0.038|
0.31,0.17,0.062,0.037,0.078,0.29,0.031,0.027|
0.019,0.12,0.081,0.011,0.18,0.18,0.31,0.1|
0.062,0.062,0.18,0.29,0.02,0.026,0.08,0.28|
0.17,0.16,0.21,0.078,0.15,0.15,0.069,0.028|
0.11,0.16,0.13,0.13,0.078,0.062,0.25,0.086|
0.19,0.0023,0.21,0.0037,0.076,0.12,0.2,0.2|
];
transition_y8=[
0.045,0.21,0.17,0.064,0.12,0.21,0.12,0.051|
0.084,0.16,0.055,0.1,0.17,0.12,0.17,0.14|
0.13,0.14,0.15,0.07,0.19,0.068,0.2,0.045|
0.12,0.22,0.018,0.13,0.15,0.25,0.034,0.073|
0.12,0.17,0.071,0.18,0.16,0.16,0.028,0.1|
0.14,0.22,0.14,0.029,0.056,0.18,0.13,0.096|
0.19,0.13,0.11,0.23,0.079,0.11,0.022,0.12|
0.057,0.11,0.12,0.1,0.16,0.11,0.18,0.16|
];
